logs/2026_03_24_00_36_56_set_set_set_s013_g001_max.log
[2026-03-24T00:36:56.386Z] Pipeline "set_set_set_s013_g001" → 2026_03_24_00_36_56_set_set_set_s013_g001_max.sol
Set parameter WLSAccessID
Set parameter WLSSecret
Set parameter LicenseID to value 2792458
Set parameter LogFile to value "gurobi.log"
Using license file /root/gurobi.lic
Academic license 2792458 - for non-commercial use only - registered to an___@studenti.unipg.it

Gurobi Optimizer version 13.0.1 build v13.0.1rc0 (linux64 - "Ubuntu 24.04.4 LTS")
Copyright (c) 2026, Gurobi Optimization, LLC

Warning: Duplicate section found (read 'binary') - Is a variable name equal to an LP file format keyword?
Warning: Duplicate section found (read 'binary') - Is a variable name equal to an LP file format keyword?
Warning: Duplicate section found (read 'binary') - Is a variable name equal to an LP file format keyword?
Warning: Duplicate section found (read 'binary') - Is a variable name equal to an LP file format keyword?
Warning: Duplicate section found (read 'binary') - Is a variable name equal to an LP file format keyword?
Warning: Duplicate section found (read 'binary') - Is a variable name equal to an LP file format keyword?
Warning: Duplicate section found (read 'binary') - Is a variable name equal to an LP file format keyword?
Warning: Duplicate section found (read 'binary') - Is a variable name equal to an LP file format keyword?
Warning: Duplicate section found (read 'binary') - Is a variable name equal to an LP file format keyword?
Warning: Duplicate section found (read 'binary') - Is a variable name equal to an LP file format keyword?
Warning: Further warnings of this type will be omitted.
Read LP format model from file /root/bgw/data/uploads/2026_03_24_00_36_56_set_set_set_s013_g001_max.lp
Reading time = 0.00 seconds
: 468 rows, 92 columns, 1183 nonzeros

Using Gurobi shared library /opt/gurobi1301/linux64/lib/libgurobi.so.13.0.1

CPU model: AMD EPYC-Genoa Processor, instruction set [SSE2|AVX|AVX2|AVX512]
Thread count: 16 physical cores, 16 logical processors, using up to 16 threads

Academic license 2792458 - for non-commercial use only - registered to an___@studenti.unipg.it
Optimize a model with 468 rows, 92 columns and 1183 nonzeros (Max)
Model fingerprint: 0xae97d897
Model has 28 linear objective coefficients
Variable types: 36 continuous, 56 integer (56 binary)
Coefficient statistics:
  Matrix range     [1e+00, 9e+00]
  Objective range  [1e+00, 1e+00]
  Bounds range     [1e+00, 1e+00]
  RHS range        [1e+00, 1e+01]

Found heuristic solution: objective 28.0000000
Presolve removed 310 rows and 37 columns
Presolve time: 0.00s
Presolved: 158 rows, 55 columns, 514 nonzeros
Variable types: 0 continuous, 55 integer (47 binary)
Found heuristic solution: objective 50.0000000

Root relaxation: objective 1.430000e+02, 51 iterations, 0.00 seconds (0.00 work units)

    Nodes    |    Current Node    |     Objective Bounds      |     Work
 Expl Unexpl |  Obj  Depth IntInf | Incumbent    BestBd   Gap | It/Node Time

     0     0  143.00000    0   25   50.00000  143.00000   186%     -    0s
H    0     0                      63.0000000  143.00000   127%     -    0s
H    0     0                      64.0000000  143.00000   123%     -    0s
H    0     0                      66.0000000  143.00000   117%     -    0s
     0     0  143.00000    0   35   66.00000  143.00000   117%     -    0s
H    0     0                      67.0000000  143.00000   113%     -    0s
H    0     0                      68.0000000  143.00000   110%     -    0s
     0     0  143.00000    0   34   68.00000  143.00000   110%     -    0s
     0     0  143.00000    0   27   68.00000  143.00000   110%     -    0s
     0     0  143.00000    0   35   68.00000  143.00000   110%     -    0s
H    0     0                      70.0000000  143.00000   104%     -    0s
     0     0  143.00000    0   33   70.00000  143.00000   104%     -    0s
     0     0  143.00000    0   33   70.00000  143.00000   104%     -    0s
H    0     0                      71.0000000  143.00000   101%     -    0s
     0     0  143.00000    0   33   71.00000  143.00000   101%     -    0s
     0     0  143.00000    0   33   71.00000  143.00000   101%     -    0s
     0     0  143.00000    0   33   71.00000  143.00000   101%     -    0s
     0     0  143.00000    0   33   71.00000  143.00000   101%     -    0s
     0     2  143.00000    0   26   71.00000  143.00000   101%     -    0s
H  174   154                      73.0000000  139.83333  91.6%  12.1    0s
H  724   363                      75.0000000  138.16667  84.2%   8.2    0s

Cutting planes:
  Gomory: 6
  Cover: 84
  MIR: 1
  Inf proof: 85
  Zero half: 8

Explored 13426 nodes (108607 simplex iterations) in 0.43 seconds (0.31 work units)
Thread count was 16 (of 16 available processors)

Solution count 10: 75 73 71 ... 50

Optimal solution found (tolerance 1.00e-04)
Best objective 7.500000000000e+01, best bound 7.500000000000e+01, gap 0.0000%

Wrote result file '/root/bgw/data/results/2026_03_24_00_36_56_set_set_set_s013_g001_max.sol'

